
List of user-set options:

                                    Name   Value                used
                           compl_inf_tol = 1                     yes
                         constr_viol_tol = 1                     yes
                            dual_inf_tol = 1000                  yes
                           linear_solver = ma97                  yes
                              ma86_small = 1e-30                  no
                                  ma86_u = 0.0001                 no
                              ma97_order = best                  yes
                              ma97_small = 1e-30                 yes
                            ma97_switch1 = at_start              yes
                            ma97_switch2 = od_hd_reuse           yes
                                  ma97_u = 1e-06                 yes
                               ma97_umax = 0.5                   yes
                                max_iter = 1000                  yes
                    max_refinement_steps = 20                    yes
                    min_refinement_steps = 5                     yes
                                 mu_init = 1e-06                 yes
           mu_superlinear_decrease_power = 1.25                  yes
                   nlp_scaling_min_value = 1e-08                 yes
                        option_file_name = Preset_Case_429_pf.opt  yes
                             output_file = ./tmp/Preset_Case_429_pf.output  yes
                      print_user_options = yes                   yes
        required_infeasibility_reduction = 1                      no
                                     tol = 1e-08                 yes
                   warm_start_bound_frac = 1e-20                 yes
                   warm_start_bound_push = 1e-20                 yes
                   warm_start_init_point = yes                   yes
              warm_start_mult_bound_push = 1e-20                 yes
                warm_start_mult_init_max = 1e+40                 yes
             warm_start_slack_bound_frac = 1e-20                 yes
             warm_start_slack_bound_push = 1e-20                 yes

******************************************************************************
This program contains Ipopt, a library for large-scale nonlinear optimization.
 Ipopt is released as open source code under the Eclipse Public License (EPL).
         For more information visit http://projects.coin-or.org/Ipopt
******************************************************************************

This is Ipopt version 3.12.10, running with linear solver ma97.

Number of nonzeros in equality constraint Jacobian...:   123443
Number of nonzeros in inequality constraint Jacobian.:      213
Number of nonzeros in Lagrangian Hessian.............:    49069

Total number of variables............................:    31591
                     variables with only lower bounds:    12912
                variables with lower and upper bounds:    15130
                     variables with only upper bounds:        0
Total number of equality constraints.................:    31483
Total number of inequality constraints...............:       25
        inequality constraints with only lower bounds:        4
   inequality constraints with lower and upper bounds:        0
        inequality constraints with only upper bounds:       21

iter    objective    inf_pr   inf_du lg(mu)  ||d||  lg(rg) alpha_du alpha_pr  ls
   0 -5.1978052e+00 4.06e-03 1.02e+00  -6.0 0.00e+00    -  0.00e+00 0.00e+00   0
   1 -5.1973506e+00 9.12e+00 3.34e+01  -6.0 2.72e+05    -  1.26e-04 1.71e-03h  1
   2 -5.1973110e+00 9.12e+00 3.34e+01  -6.0 2.22e+03    -  1.09e-04 3.37e-05h  1
   3 -5.1972239e+00 9.12e+00 3.45e+01  -6.0 1.78e+04    -  9.02e-05 3.28e-05h  7
   4 -5.1971830e+00 9.12e+00 4.01e+01  -6.0 3.05e+03    -  7.51e-02 3.63e-05h  7
   5 -5.1971802e+00 9.12e+00 4.51e+01  -6.0 1.83e+05    -  2.10e-04 1.01e-06h  8
   6 -5.1963234e+00 9.11e+00 4.51e+01  -6.0 1.78e+04    -  3.22e-04 3.22e-04s 12
   7r-5.1963234e+00 9.11e+00 9.99e+02   1.0 0.00e+00    -  0.00e+00 0.00e+00R  1
   8r-5.2004385e+00 9.11e+00 2.38e+03   1.0 2.75e+06    -  1.14e-07 1.33e-08f  1
   9 -5.2004124e+00 9.11e+00 1.27e+03  -6.0 5.25e+02    -  8.04e-04 1.99e-05h  1
iter    objective    inf_pr   inf_du lg(mu)  ||d||  lg(rg) alpha_du alpha_pr  ls
  10 -5.1999181e+00 9.11e+00 1.57e+04  -6.0 6.71e+02    -  2.09e-05 2.54e-04h  1
  11 -5.1994911e+00 9.11e+00 1.57e+04  -6.0 4.00e+02    -  2.48e-04 2.45e-04h  1
  12 -5.1972879e+00 9.10e+00 1.57e+04  -6.0 3.66e+02    -  5.12e-04 1.32e-03h  1
  13 -5.1920616e+00 9.07e+00 1.56e+04  -6.0 3.70e+02    -  2.88e-04 3.17e-03h  1
  14 -5.1905972e+00 9.06e+00 1.56e+04  -6.0 3.66e+02    -  3.69e-04 8.30e-04h  4
  15 -5.1895682e+00 9.06e+00 1.56e+04  -6.0 3.60e+02    -  2.87e-04 5.49e-04h  6
  16 -5.1893164e+00 9.05e+00 1.56e+04  -6.0 3.42e+02    -  7.07e-05 1.19e-04h  9
  17 -5.1892132e+00 9.05e+00 1.56e+04  -6.0 3.20e+02    -  3.23e-03 4.31e-05h 10
  18 -5.1888892e+00 9.05e+00 1.56e+04  -6.0 3.22e+02    -  1.36e-04 1.36e-04s 17
  19 -5.1846914e+00 9.04e+00 1.56e+04  -6.0 3.22e+02    -  1.76e-03 1.76e-03s 17
iter    objective    inf_pr   inf_du lg(mu)  ||d||  lg(rg) alpha_du alpha_pr  ls
  20 -5.1790344e+00 9.02e+00 1.55e+04  -6.0 3.23e+02    -  2.39e-03 2.39e-03s 17
  21 -5.1385898e+00 8.86e+00 1.53e+04  -6.0 3.23e+02    -  1.71e-02 1.71e-02s 17
  22 -5.0771036e+00 8.63e+00 1.49e+04  -6.0 3.22e+02    -  2.64e-02 2.64e-02s 17
  23r-5.0771036e+00 8.63e+00 1.00e+03   0.9 0.00e+00    -  0.00e+00 0.00e+00R  1
  24r-5.0778614e+00 8.63e+00 5.82e+04   0.9 5.33e+04    -  1.76e-07 1.14e-07f  1
  25r-5.0829061e+00 8.62e+00 5.82e+04   0.9 4.16e+04    -  2.62e-07 4.11e-07f  1
  26r-5.0956218e+00 8.61e+00 5.82e+04   0.9 2.58e+04    -  2.60e-06 1.08e-06f  1
  27r-5.1459040e+00 8.56e+00 5.82e+04   0.9 1.04e+04    -  1.63e-06 6.23e-06f  1
  28 -5.1457516e+00 8.56e+00 1.71e+05  -6.0 3.54e+02    -  3.27e-02 7.16e-05h  1
  29 -5.1090143e+00 8.44e+00 3.15e+07  -6.0 2.86e+02    -  7.59e-05 1.40e-02h  1
iter    objective    inf_pr   inf_du lg(mu)  ||d||  lg(rg) alpha_du alpha_pr  ls
  30 -5.1087436e+00 8.44e+00 3.15e+07  -6.0 3.11e+02    -  2.40e-02 1.12e-04h  1
  31 -5.0146607e+00 8.13e+00 3.04e+07  -6.0 2.97e+02    -  3.17e-02 3.65e-02h  1
  32 -4.8967460e+00 7.75e+00 2.89e+07  -6.0 2.96e+02    -  6.36e-02 4.79e-02h  1
  33 -4.7594981e+00 7.23e+00 2.70e+07  -6.0 3.04e+02    -  1.08e-01 6.68e-02h  1
  34 -4.5520993e+00 6.48e+00 2.42e+07  -6.0 2.82e+02    -  6.15e-02 1.05e-01h  1
  35 -4.4686362e+00 6.16e+00 2.30e+07  -6.0 2.73e+02    -  1.54e-06 5.02e-02h  1
  36 -4.4258190e+00 5.99e+00 2.23e+07  -6.0 2.64e+02    -  2.48e-01 2.81e-02h  1
  37 -4.4170748e+00 5.95e+00 2.22e+07  -6.0 2.79e+02    -  1.38e-01 6.05e-03h  1
  38 -4.1277487e+00 4.78e+00 1.78e+07  -6.0 2.78e+02    -  1.70e-01 1.99e-01h  1
  39 -3.7799646e+00 3.00e+00 1.10e+07  -6.0 2.65e+02    -  3.42e-01 3.79e-01h  1
iter    objective    inf_pr   inf_du lg(mu)  ||d||  lg(rg) alpha_du alpha_pr  ls
  40 -3.6894489e+00 1.73e+00 5.59e+06  -6.0 2.19e+02    -  8.30e-02 4.93e-01h  1
  41r-3.6894489e+00 1.73e+00 1.00e+03   0.2 0.00e+00    -  0.00e+00 3.55e-07R  4
  42r-3.7002918e+00 1.73e+00 1.00e+03   0.2 3.42e+05    -  6.84e-09 2.59e-07f  1
  43 -3.7002928e+00 1.73e+00 1.01e+02  -6.0 2.31e+02    -  3.45e-06 1.55e-06h  2
  44 -3.7002913e+00 1.73e+00 1.65e+02  -6.0 7.89e+01    -  2.35e-03 3.24e-05h  1
  45 -3.7004131e+00 1.73e+00 2.06e+02  -6.0 1.20e+02    -  3.90e-05 1.29e-03h  1
  46 -3.7003256e+00 1.73e+00 2.93e+02  -6.0 8.42e+01    -  2.43e-04 1.31e-03h  1
  47 -3.7000201e+00 1.72e+00 5.48e+02  -6.0 8.42e+01    -  2.08e-03 5.21e-03h  1
  48 -3.6987713e+00 1.68e+00 1.80e+03  -6.0 8.33e+01    -  5.26e-03 2.09e-02h  1
  49 -3.6975926e+00 1.65e+00 2.70e+03  -6.0 8.02e+01    -  8.81e-03 2.05e-02h  1
iter    objective    inf_pr   inf_du lg(mu)  ||d||  lg(rg) alpha_du alpha_pr  ls
  50 -3.6969765e+00 1.62e+00 3.11e+03  -6.0 7.84e+01    -  1.44e-02 2.00e-02h  1
  51 -3.6969026e+00 1.62e+00 1.03e+05  -6.0 8.54e+01    -  6.50e-03 2.45e-04h  1
  52 -3.6968477e+00 1.62e+00 1.50e+06  -6.0 9.96e+01    -  5.51e-02 6.61e-04h  1
  53 -3.6984669e+00 1.61e+00 2.77e+06  -6.0 1.74e+02    -  1.25e-02 2.42e-03h  1
  54 -3.6984931e+00 1.61e+00 6.94e+06  -6.0 7.38e+02    -  2.66e-03 4.95e-06h  1
  55 -3.7046383e+00 1.61e+00 1.44e+07  -6.0 7.78e+02    -  5.77e-03 1.11e-03f  1
  56 -3.7679113e+00 1.61e+00 1.02e+06  -6.0 9.03e+02    -  6.69e-04 1.01e-02h  1
  57 -3.7847072e+00 1.61e+00 1.58e+06  -6.0 9.88e+02    -  4.20e-03 2.53e-03h  1
  58 -3.8891917e+00 1.61e+00 1.09e+07  -6.0 9.86e+02    -  2.19e-02 1.58e-02f  1
  59 -4.0707953e+00 1.66e+00 3.23e+07  -6.0 9.40e+02    -  6.02e-04 2.97e-02h  1
iter    objective    inf_pr   inf_du lg(mu)  ||d||  lg(rg) alpha_du alpha_pr  ls
  60 -4.0714703e+00 1.66e+00 3.23e+07  -6.0 2.22e+03    -  1.52e-02 1.78e-04h  1
  61 -4.1380067e+00 1.67e+00 2.09e+07  -6.0 2.23e+03    -  1.50e-02 1.75e-02h  1
  62 -4.1407439e+00 1.67e+00 1.95e+08  -6.0 2.24e+03    -  3.36e-02 7.24e-04h  1
  63r-4.1407439e+00 1.67e+00 1.00e+03   0.1 0.00e+00    -  0.00e+00 7.60e-08R  2
  64r-4.1448936e+00 1.67e+00 2.54e+03   0.1 1.37e+04    -  1.88e-06 8.10e-07f  1
  65 -4.1448972e+00 1.67e+00 4.78e+04  -6.0 3.49e+01    -  2.67e-03 4.28e-05h  1
  66 -4.1448462e+00 1.67e+00 1.24e+06  -6.0 5.28e+01    -  4.38e-05 1.11e-03h  1
  67 -4.1448415e+00 1.67e+00 1.24e+06  -6.0 6.53e+01    -  5.12e-03 1.50e-05h  1
  68 -4.1451126e+00 1.67e+00 9.04e+06  -6.0 2.35e+03    -  1.52e-03 6.57e-05h  1
  69 -4.1515589e+00 1.67e+00 8.82e+07  -6.0 2.46e+03    -  1.44e-02 1.50e-03h  1
iter    objective    inf_pr   inf_du lg(mu)  ||d||  lg(rg) alpha_du alpha_pr  ls
  70 -4.1524412e+00 1.67e+00 1.04e+08  -6.0 2.43e+03    -  2.99e-03 2.11e-04h  1
  71 -4.1524614e+00 1.67e+00 4.69e+08  -6.0 3.27e+03    -  2.18e-02 3.37e-06h  1
  72 -4.3911883e+00 4.07e+00 3.59e+07  -6.0 4.44e+03    -  3.41e-03 3.85e-02f  1
  73 -4.4361481e+00 4.06e+00 1.94e+08  -6.0 6.08e+03    -  1.55e-02 7.05e-03h  1
  74 -4.4406803e+00 4.05e+00 9.10e+08  -6.0 6.02e+03    -  3.46e-02 7.59e-04h  1
  75 -4.6485515e+00 3.94e+00 2.85e+08  -6.0 6.63e+03    -  8.14e-03 3.25e-02h  1
  76 -4.4888138e+00 3.94e+00 2.84e+08  -6.0 1.27e+03    -  1.16e-07 1.49e-04h  6
  77 -4.4515174e+00 3.94e+00 2.84e+08  -6.0 1.12e+03    -  1.88e-04 3.34e-05h  9
  78 -3.6241780e+00 3.94e+00 2.84e+08  -6.0 1.12e+03    -  7.41e-04 7.41e-04s 16
  79 -2.0924595e+00 3.93e+00 2.84e+08  -6.0 1.12e+03    -  1.37e-03 1.37e-03s 16
iter    objective    inf_pr   inf_du lg(mu)  ||d||  lg(rg) alpha_du alpha_pr  ls
  80  5.6235121e+00 3.91e+00 2.82e+08  -6.0 1.11e+03    -  6.94e-03 6.94e-03s 16
  81  2.1124749e+01 3.85e+00 2.78e+08  -6.0 1.09e+03    -  1.42e-02 1.42e-02s 16
  82  9.7244363e+01 3.58e+00 2.58e+08  -6.0 1.06e+03    -  7.21e-02 7.21e-02s 16
  83  1.6953640e+02 3.28e+00 2.36e+08  -6.0 9.59e+02    -  8.30e-02 8.30e-02s 16
  84  2.6206433e+02 2.84e+00 2.02e+08  -6.0 8.82e+02    -  1.35e-01 1.35e-01s 16
  85r 2.6206433e+02 2.84e+00 1.00e+03   0.2 0.00e+00    -  0.00e+00 0.00e+00R  1
  86r 2.6205889e+02 2.84e+00 2.12e+03   0.2 1.43e+04    -  1.70e-05 1.08e-06f  1
  87r 2.6186767e+02 2.79e+00 2.14e+03   0.2 1.14e+04    -  1.95e-05 3.00e-05f  1
  88r 2.6155397e+02 2.65e+00 2.14e+03   0.2 9.74e+03    -  6.13e-05 7.55e-05f  1
  89r 2.6114010e+02 2.39e+00 3.28e+03   0.2 9.11e+03    -  3.48e-04 1.49e-04f  1
iter    objective    inf_pr   inf_du lg(mu)  ||d||  lg(rg) alpha_du alpha_pr  ls
  90r 2.5955800e+02 1.08e+00 2.14e+03   0.2 7.16e+03    -  7.78e-04 9.81e-04f  1
  91r 2.5914124e+02 1.08e+00 4.98e+03   0.2 2.19e+03    -  2.99e-03 2.03e-03f  1
  92  2.5886554e+02 1.07e+00 1.01e+02  -6.0 2.71e+02    -  1.30e-04 1.33e-03f  1
  93  2.5868601e+02 1.07e+00 1.01e+02  -6.0 3.15e+02    -  2.47e-03 8.75e-04f  1
  94  2.5692794e+02 1.06e+00 9.99e+01  -6.0 2.08e+02    -  9.65e-04 8.65e-03f  1
  95  2.5470545e+02 1.04e+00 9.88e+01  -6.0 2.07e+02    -  9.35e-03 1.10e-02f  1
  96  2.4792592e+02 9.87e-01 1.72e+02  -6.0 2.05e+02    -  4.30e-02 3.38e-02f  1
  97  2.4679004e+02 9.79e-01 1.74e+02  -6.0 2.02e+02    -  8.60e-02 5.76e-03f  1
  98  2.1948204e+02 1.02e+00 9.32e+03  -6.0 2.05e+02    -  2.48e-02 1.37e-01f  1
  99  2.1863108e+02 1.02e+00 6.86e+03  -6.0 1.83e+02    -  2.90e-02 4.75e-03f  1
iter    objective    inf_pr   inf_du lg(mu)  ||d||  lg(rg) alpha_du alpha_pr  ls
 100  2.1374018e+02 1.01e+00 8.38e+03  -6.0 1.83e+02    -  1.06e-02 2.74e-02f  1
 101  2.1052662e+02 1.00e+00 4.60e+03  -6.0 1.80e+02    -  3.61e-02 1.83e-02f  1
 102  2.1011857e+02 9.99e-01 2.79e+03  -6.0 7.32e+02    -  8.16e-03 2.32e-03f  1
 103  2.0940315e+02 9.96e-01 1.27e+04  -6.0 6.93e+02    -  1.25e-02 4.07e-03f  1
 104  2.0938722e+02 9.96e-01 1.69e+04  -6.0 1.06e+03    -  2.76e-03 9.17e-05f  1
 105  2.0715150e+02 9.89e-01 8.83e+03  -6.0 1.05e+03    -  7.77e-03 1.29e-02f  1
 106  2.0715122e+02 9.89e-01 1.26e+04  -6.0 1.01e+03    -  1.94e-03 1.60e-06h  1
 107  2.0686759e+02 9.86e-01 9.54e+03  -6.0 1.02e+03    -  1.06e-04 1.62e-03f  1
 108  2.0593515e+02 9.77e-01 3.88e+03  -6.0 9.95e+02    -  2.45e-03 5.34e-03f  1
 109  2.0484865e+02 9.66e-01 2.55e+03  -6.0 8.62e+02    -  5.13e-03 6.25e-03f  1
iter    objective    inf_pr   inf_du lg(mu)  ||d||  lg(rg) alpha_du alpha_pr  ls
 110  2.0223612e+02 1.38e+00 2.58e+03  -6.0 7.13e+02    -  1.55e-02 1.52e-02f  1
 111  1.9976436e+02 1.36e+00 4.95e+03  -6.0 4.07e+02    -  1.76e-02 1.46e-02f  1
 112  1.9944675e+02 1.36e+00 1.34e+04  -6.0 9.04e+02    -  2.06e-02 1.90e-03f  1
 113  1.9336602e+02 1.31e+00 9.29e+03  -6.0 9.74e+02    -  2.06e-02 3.64e-02f  1
 114  1.9194687e+02 1.30e+00 9.21e+03  -6.0 2.96e+02    -  1.14e-03 8.60e-03f  1
 115  1.8740208e+02 1.26e+00 8.95e+03  -6.0 3.81e+02    -  7.73e-04 2.77e-02f  1
 116  1.8078623e+02 1.21e+00 8.59e+03  -6.0 2.17e+02    -  6.66e-04 4.13e-02f  1
 117  1.7429015e+02 1.15e+00 8.79e+03  -6.0 1.83e+02    -  6.93e-04 4.20e-02f  1
 118  1.7058715e+02 1.12e+00 8.14e+03  -6.0 4.36e+02    -  2.49e-03 2.47e-02f  1
 119  1.5497742e+02 9.92e-01 1.51e+04  -6.0 4.03e+02    -  1.79e-02 1.06e-01f  1
iter    objective    inf_pr   inf_du lg(mu)  ||d||  lg(rg) alpha_du alpha_pr  ls
 120  1.5148055e+02 9.65e-01 1.32e+04  -6.0 2.70e+02    -  4.91e-05 2.66e-02f  1
 121  1.4645143e+02 9.25e-01 1.34e+04  -6.0 1.32e+02    -  1.41e-01 3.88e-02f  1
 122  1.4645132e+02 9.25e-01 1.36e+04  -6.0 4.89e+01  -2.0 4.05e-02 2.30e-06h  1
 123  1.4247499e+02 8.96e-01 1.37e+04  -6.0 1.34e+02    -  1.89e-02 2.99e-02f  1
 124  1.4220944e+02 8.94e-01 1.35e+04  -6.0 1.28e+03    -  1.19e-04 2.04e-03f  1
 125  1.4220936e+02 8.94e-01 1.34e+04  -6.0 1.31e+02    -  7.37e-04 5.80e-07h  1
 126  1.4184720e+02 8.91e-01 1.34e+04  -6.0 1.36e+03    -  2.43e-03 2.73e-03f  1
 127  1.3123443e+02 8.13e-01 1.70e+04  -6.0 1.69e+02    -  2.95e-05 8.17e-02f  1
 128  1.3010248e+02 8.05e-01 1.62e+04  -6.0 1.64e+02    -  3.69e-02 9.35e-03f  1
 129  1.3007958e+02 8.05e-01 1.49e+04  -6.0 1.21e+02    -  7.59e-02 1.91e-04f  1
iter    objective    inf_pr   inf_du lg(mu)  ||d||  lg(rg) alpha_du alpha_pr  ls
 130  1.2777096e+02 7.88e-01 1.13e+04  -6.0 1.59e+02    -  9.27e-02 1.91e-02f  1
 131  1.1996361e+02 7.33e-01 1.05e+04  -6.0 1.55e+02    -  6.54e-02 6.52e-02f  1
 132  1.1977008e+02 7.31e-01 1.25e+04  -6.0 1.14e+02    -  1.67e-01 1.70e-03f  1
 133  1.1552103e+02 7.01e-01 1.49e+04  -6.0 2.43e+02    -  4.38e-03 3.68e-02f  1
 134  1.0829118e+02 6.21e-01 1.41e+04  -6.0 1.24e+02    -  6.78e-02 6.49e-02f  1
 135  1.0556430e+02 5.98e-01 1.32e+04  -6.0 1.89e+02    -  5.84e-02 2.60e-02f  1
 136  1.0358916e+02 5.84e-01 1.23e+04  -6.0 1.56e+02    -  1.67e-02 1.90e-02f  1
 137  1.0166498e+02 5.67e-01 1.31e+04  -6.0 2.46e+02    -  5.60e-03 1.90e-02f  1
 138  9.9827206e+01 5.52e-01 1.29e+04  -6.0 2.42e+02    -  1.77e-02 1.85e-02f  1
 139  8.9122097e+01 3.70e-01 1.20e+04  -6.0 2.64e+02    -  7.16e-02 1.09e-01f  1
iter    objective    inf_pr   inf_du lg(mu)  ||d||  lg(rg) alpha_du alpha_pr  ls
 140  8.9011589e+01 3.70e-01 1.19e+04  -6.0 6.57e+02    -  7.85e-07 1.26e-03f  1
 141  8.8028424e+01 3.66e-01 1.17e+04  -6.0 6.64e+02    -  8.14e-03 1.12e-02f  1
 142  8.3060056e+01 3.52e-01 9.89e+03  -6.0 2.82e+02    -  2.76e-02 5.70e-02f  1
 143  7.7290613e+01 3.55e-01 9.61e+03  -6.0 2.60e+02    -  6.31e-02 6.97e-02f  1
 144  7.2205482e+01 3.51e-01 2.02e+04  -6.0 2.64e+02    -  2.64e-02 6.54e-02f  1
 145  5.6675122e+01 2.92e-01 1.16e+05  -6.0 3.16e+02    -  7.16e-02 2.11e-01f  1
 146  5.4586688e+01 3.02e-01 1.29e+05  -6.0 4.91e+02    -  1.21e-02 3.49e-02f  1
 147  5.4510342e+01 3.01e-01 1.30e+05  -6.0 6.08e+02    -  5.80e-04 1.33e-03f  1
 148  5.2403485e+01 3.14e-01 1.73e+05  -6.0 5.85e+02    -  5.16e-04 3.68e-02f  1
 149  5.2231620e+01 3.13e-01 1.72e+05  -6.0 1.92e+02    -  3.20e-03 3.13e-03f  1
iter    objective    inf_pr   inf_du lg(mu)  ||d||  lg(rg) alpha_du alpha_pr  ls
 150  5.1860103e+01 3.12e-01 1.71e+05  -6.0 1.88e+02    -  6.72e-03 6.78e-03f  1
 151  4.9845306e+01 3.16e-01 1.66e+05  -6.0 1.87e+02    -  3.17e-02 3.70e-02f  1
 152  4.2886636e+01 4.16e-01 1.44e+05  -6.0 1.29e+02    -  4.98e-02 1.34e-01f  1
 153  4.2041989e+01 4.16e-01 1.41e+05  -6.0 5.42e+02    -  4.83e-06 1.76e-02f  1
 154  4.0353124e+01 4.17e-01 1.36e+05  -6.0 7.01e+02    -  3.05e-02 3.66e-02f  1
 155  3.9967096e+01 4.15e-01 1.35e+05  -6.0 1.72e+03    -  1.38e-02 8.15e-03f  1
 156  3.9905907e+01 4.14e-01 1.35e+05  -6.0 8.81e+01  -2.5 7.16e-06 1.64e-03f  1
 157  3.9521681e+01 4.13e-01 1.33e+05  -6.0 1.07e+02  -3.0 4.79e-03 9.25e-03f  1
 158  3.9430966e+01 4.12e-01 1.33e+05  -6.0 4.83e+02  -3.4 2.03e-02 2.01e-03f  1
 159  3.9423978e+01 4.12e-01 1.33e+05  -6.0 2.66e+03  -3.9 6.29e-04 1.23e-04h  1
iter    objective    inf_pr   inf_du lg(mu)  ||d||  lg(rg) alpha_du alpha_pr  ls
 160  3.9258475e+01 4.12e-01 1.33e+05  -6.0 8.74e+02  -3.5 5.17e-03 3.46e-03f  1
 161  3.8475669e+01 4.20e-01 1.30e+05  -6.0 3.01e+02  -3.1 6.95e-03 1.84e-02f  1
 162  3.8174785e+01 4.20e-01 1.28e+05  -6.0 9.22e+01  -1.7 9.11e-03 1.41e-02f  1
 163  3.8147189e+01 4.19e-01 1.28e+05  -6.0 8.68e+01  -1.3 1.71e-02 2.37e-03h  1
 164  3.8147183e+01 4.19e-01 1.28e+05  -6.0 1.91e+02  -1.8 2.68e-03 2.28e-07h  2
 165  3.8112381e+01 4.18e-01 1.28e+05  -6.0 8.21e+01  -1.4 1.22e-04 2.83e-03h  1
 166  3.7994864e+01 4.16e-01 1.27e+05  -6.0 5.70e+01  -1.8 2.27e-02 5.29e-03f  1
 167  3.7959363e+01 4.16e-01 1.27e+05  -6.0 1.52e+02  -2.3 6.10e-04 1.05e-03f  1
 168  3.7890729e+01 4.15e-01 1.27e+05  -6.0 7.11e+01  -2.8 7.17e-03 1.79e-03f  1
 169  3.7875263e+01 4.15e-01 1.27e+05  -6.0 7.37e+01  -2.4 1.33e-03 4.77e-04f  1
iter    objective    inf_pr   inf_du lg(mu)  ||d||  lg(rg) alpha_du alpha_pr  ls
 170  3.7633748e+01 4.13e-01 1.26e+05  -6.0 2.30e+02  -2.8 8.20e-04 6.71e-03f  1
 171  3.7618596e+01 4.13e-01 1.26e+05  -6.0 1.22e+02  -2.4 3.11e-02 4.63e-04h  1
 172  3.6578288e+01 4.08e-01 1.22e+05  -6.0 1.52e+02  -2.9 1.64e-02 2.82e-02f  1
 173  3.4300376e+01 4.06e-01 1.15e+05  -6.0 2.09e+02    -  1.58e-06 5.69e-02f  1
 174  3.1659315e+01 4.57e-01 1.25e+05  -6.0 3.67e+02    -  1.72e-02 6.98e-02f  1
 175  3.1419508e+01 4.63e-01 1.21e+05  -6.0 5.99e+02  -3.4 8.75e-07 6.68e-03f  1
 176  3.1402490e+01 4.63e-01 1.21e+05  -6.0 4.21e+02  -2.9 1.37e-03 5.10e-04h  1
 177  3.1343384e+01 4.62e-01 1.21e+05  -6.0 2.52e+02  -2.5 8.17e-04 2.16e-03f  1
 178  3.1306714e+01 4.61e-01 1.21e+05  -6.0 5.03e+02  -3.0 2.49e-03 1.07e-03f  1
 179  3.1133799e+01 4.59e-01 1.20e+05  -6.0 1.64e+03    -  4.33e-09 5.62e-03f  1
iter    objective    inf_pr   inf_du lg(mu)  ||d||  lg(rg) alpha_du alpha_pr  ls
 180  3.1061642e+01 4.60e-01 1.20e+05  -6.0 1.01e+03  -3.5 1.50e-08 1.94e-03f  1
 181  3.1039636e+01 4.60e-01 1.20e+05  -6.0 2.45e+02  -3.0 3.82e-03 8.13e-04f  1
 182  3.1003929e+01 4.59e-01 1.20e+05  -6.0 3.23e+02    -  1.81e-02 1.12e-03f  1
 183  3.0967230e+01 4.59e-01 1.20e+05  -6.0 2.73e+03    -  2.31e-03 1.27e-03h  1
 184  3.0914461e+01 4.58e-01 1.19e+05  -6.0 2.64e+03    -  1.15e-04 2.01e-03f  1
 185  2.8512506e+01 4.45e-01 1.13e+05  -6.0 3.82e+02    -  2.79e-03 7.14e-02f  1
 186  2.8507871e+01 4.45e-01 1.13e+05  -6.0 6.22e+02    -  1.23e-03 1.50e-04h  1
 187  2.5624219e+01 3.95e-01 1.08e+05  -6.0 6.25e+02    -  3.40e-02 9.60e-02f  1
 188  2.1802527e+01 8.49e-01 9.10e+04  -6.0 2.16e+02    -  6.67e-02 1.47e-01f  1
 189  2.1800414e+01 8.49e-01 9.10e+04  -6.0 8.08e+02    -  2.61e-02 1.17e-04h  1
iter    objective    inf_pr   inf_du lg(mu)  ||d||  lg(rg) alpha_du alpha_pr  ls
 190  1.8346016e+01 4.38e+00 8.30e+04  -6.0 2.61e+02    -  1.47e-03 1.89e-01f  1
 191  1.8346022e+01 4.38e+00 8.30e+04  -6.0 1.34e+03    -  2.30e-03 1.49e-05h  1
 192  1.8343570e+01 4.38e+00 8.30e+04  -6.0 3.16e+03    -  6.39e-04 1.87e-05h  1
 193  1.5732070e+01 6.81e+00 9.77e+04  -6.0 4.21e+02    -  5.57e-05 6.09e-02f  1
 194  1.5724215e+01 6.80e+00 9.77e+04  -6.0 6.46e+02    -  2.44e-02 3.70e-04h  1
 195  1.3264924e+01 5.91e+00 1.12e+05  -6.0 1.52e+02    -  7.40e-02 1.22e-01f  1
 196  1.1387586e+01 5.25e+00 8.19e+04  -6.0 9.04e+01    -  1.44e-01 1.09e-01f  1
 197  1.1365763e+01 5.25e+00 8.18e+04  -6.0 7.38e+02    -  2.93e-02 1.37e-03h  1
 198  9.3790498e+00 4.56e+00 6.39e+04  -6.0 8.53e+01    -  3.02e-02 1.30e-01f  1
 199  8.1260744e+00 4.12e+00 5.55e+04  -6.0 8.06e+01    -  6.90e-02 9.47e-02f  1
iter    objective    inf_pr   inf_du lg(mu)  ||d||  lg(rg) alpha_du alpha_pr  ls
 200  5.8987504e+00 3.39e+00 4.00e+05  -6.0 7.81e+02    -  2.81e-02 1.75e-01f  1
 201  3.6096973e+00 2.57e+00 2.78e+05  -6.0 9.18e+01    -  2.11e-02 2.39e-01f  1
 202  2.1994082e+00 2.10e+00 2.27e+05  -6.0 1.41e+02    -  2.21e-01 1.86e-01f  1
 203  1.6866016e+00 1.92e+00 2.13e+05  -6.0 2.14e+02    -  2.67e-01 8.36e-02h  1
 204  1.6238526e+00 1.90e+00 2.11e+05  -6.0 8.82e+02    -  3.59e-02 9.38e-03h  1
 205 -9.6234638e-01 1.05e+00 3.15e+05  -6.0 2.83e+02    -  4.49e-02 4.65e-01f  1
 206 -9.6234895e-01 1.05e+00 3.15e+05  -6.0 8.09e+02    -  8.81e-03 6.39e-07h  2
 207 -1.1143326e+00 1.00e+00 3.04e+05  -6.0 1.76e+02    -  1.58e-02 4.30e-02h  1
 208 -2.2172230e+00 3.17e+00 3.08e+05  -6.0 1.74e+02    -  3.94e-02 3.19e-01f  1
 209 -2.6608129e+00 3.13e+00 2.69e+05  -6.0 4.86e+02    -  1.82e-01 1.60e-01h  1
iter    objective    inf_pr   inf_du lg(mu)  ||d||  lg(rg) alpha_du alpha_pr  ls
 210 -2.9214841e+00 2.93e+00 2.44e+05  -6.0 6.09e+02    -  7.46e-02 1.04e-01h  1
 211 -4.1397014e+00 7.61e-01 5.55e+04  -6.0 9.22e+01    -  7.63e-03 7.35e-01h  1
 212 -4.2074319e+00 6.87e-01 5.00e+04  -6.0 8.43e+01    -  7.12e-01 1.01e-01h  1
 213 -4.6087074e+00 6.83e-01 3.73e+04  -6.0 2.67e+02    -  1.80e-01 3.01e-01h  1
 214 -4.7865176e+00 6.68e-01 3.64e+04  -6.0 1.89e+03    -  2.13e-02 2.33e-02h  1
 215 -4.9726486e+00 5.72e-01 3.09e+04  -6.0 3.98e+02    -  1.71e-02 1.44e-01h  1
 216 -5.0027697e+00 5.43e-01 2.89e+04  -6.0 9.44e+01    -  5.18e-02 5.93e-02h  1
 217 -5.0199491e+00 5.24e-01 2.78e+04  -6.0 9.33e+01    -  1.07e-01 3.82e-02h  1
 218 -5.0429701e+00 4.95e-01 2.61e+04  -6.0 1.03e+02    -  1.93e-01 5.95e-02h  1
 219 -5.0429993e+00 4.95e-01 2.61e+04  -6.0 4.77e+02    -  2.83e-02 3.79e-05h  1
iter    objective    inf_pr   inf_du lg(mu)  ||d||  lg(rg) alpha_du alpha_pr  ls
 220 -5.0585372e+00 5.01e-01 2.57e+04  -6.0 5.28e+02    -  4.77e-02 1.57e-02f  1
 221 -5.1077000e+00 6.40e-01 2.40e+04  -6.0 5.76e+02    -  2.14e-02 4.90e-02h  1
 222 -5.3410474e+00 1.70e+00 1.53e+04  -6.0 1.75e+02    -  4.15e-02 8.58e-01h  1
 223 -5.3654332e+00 1.26e+00 1.04e+04  -6.0 1.83e+02    -  3.80e-01 3.22e-01h  1
 224 -5.3986303e+00 8.18e-01 5.66e+03  -6.0 1.54e+02    -  8.25e-03 4.65e-01h  1
 225 -5.4126492e+00 7.38e-01 5.10e+03  -6.0 3.19e+02    -  2.08e-02 9.79e-02h  1
 226 -5.4209653e+00 7.33e-01 5.08e+03  -6.0 1.10e+04    -  2.71e-02 3.23e-03h  1
 227 -5.4540068e+00 3.90e-01 2.76e+03  -6.0 1.71e+02    -  2.39e-02 4.56e-01h  1
 228 -5.4795603e+00 2.65e-01 2.12e+03  -6.0 1.60e+02    -  3.52e-02 6.63e-01h  1
 229 -5.4891681e+00 1.82e-01 1.36e+03  -6.0 1.19e+02    -  1.70e-02 3.57e-01h  1
iter    objective    inf_pr   inf_du lg(mu)  ||d||  lg(rg) alpha_du alpha_pr  ls
 230 -5.5105994e+00 1.78e-01 3.33e+02  -6.0 1.09e+02    -  5.01e-01 8.57e-01f  1
 231 -5.5236288e+00 2.42e-01 2.78e+02  -6.0 1.30e+02    -  2.14e-01 8.54e-01h  1
 232 -5.5276786e+00 2.16e-03 1.78e+02  -6.0 2.47e+00  -3.5 7.71e-01 1.00e+00h  1
 233 -5.5335734e+00 3.45e-04 3.38e+01  -6.0 2.96e+00  -4.0 2.74e-01 1.00e+00h  1
 234 -5.5435520e+00 3.18e-03 9.70e+00  -6.0 5.48e+00  -4.5 9.36e-01 1.00e+00h  1
 235 -5.5485627e+00 2.04e-02 4.58e+01  -6.0 5.71e+00  -4.9 8.60e-01 1.00e+00h  1
 236 -5.5772401e+00 1.00e+01 1.10e+02  -6.0 1.34e+04    -  3.77e-02 6.82e-02h  1
 237 -5.6226429e+00 6.30e+01 1.26e+03  -6.0 8.66e+03    -  2.02e-01 2.44e-01h  1
 238 -5.6358313e+00 5.66e+01 2.68e+03  -6.0 2.97e+03    -  9.65e-02 1.39e-01h  1
 239 -5.6351533e+00 9.65e-02 4.80e+04  -6.0 4.87e+01  -5.4 1.67e-01 1.00e+00h  1
iter    objective    inf_pr   inf_du lg(mu)  ||d||  lg(rg) alpha_du alpha_pr  ls
 240 -5.6370381e+00 2.62e-02 5.20e+02  -6.0 2.54e+01  -5.9 9.66e-01 1.00e+00h  1
 241 -5.6439587e+00 1.24e-01 8.45e+03  -6.0 1.43e+02  -6.4 8.92e-01 3.58e-01h  1
 242 -5.6629750e+00 5.40e+00 7.39e+04  -6.0 2.37e+03    -  2.90e-02 2.65e-01h  1
 243 -5.6657682e+00 4.46e+00 6.28e+04  -6.0 1.38e+02  -6.9 1.56e-01 1.75e-01h  1
 244 -5.6709395e+00 1.80e+00 3.53e+07  -6.0 1.18e+02  -7.3 8.23e-04 6.02e-01h  1
 245 -5.6709804e+00 1.80e+00 3.52e+07  -6.0 8.01e+03  -7.8 1.38e-03 2.94e-03f  1
 246 -5.6757589e+00 1.49e+00 2.48e+07  -6.0 4.71e+02  -8.3 3.02e-01 2.96e-01h  1
 247 -5.6793217e+00 1.07e+00 1.70e+07  -6.0 2.19e+02  -7.9 4.04e-01 3.13e-01f  1
 248 -5.6860313e+00 9.77e-01 1.32e+07  -6.0 6.15e+02  -8.3 3.93e-01 2.27e-01h  1
 249 -5.6900903e+00 8.86e-01 1.20e+07  -6.0 3.40e+02  -7.0 1.77e-01 9.33e-02h  1
iter    objective    inf_pr   inf_du lg(mu)  ||d||  lg(rg) alpha_du alpha_pr  ls
 250 -5.6942484e+00 7.28e-01 8.15e+06  -6.0 3.21e+02  -7.5 1.00e+00 3.19e-01h  1
 251 -5.6962571e+00 9.48e-01 8.04e+06  -6.0 6.14e+03  -8.0 3.04e-02 1.43e-02h  1
 252 -5.6999292e+00 8.06e-01 6.52e+06  -6.0 5.75e+02  -8.4 4.75e-01 1.89e-01h  1
 253 -5.7066926e+00 4.26e+00 4.84e+06  -6.0 1.56e+03  -8.9 5.70e-01 2.58e-01h  1
 254 -5.7181279e+00 4.20e+01 3.03e+06  -6.0 3.49e+03  -9.4 2.03e-01 3.77e-01h  1
 255 -5.7244336e+00 2.99e+01 2.09e+06  -6.0 2.77e+03  -9.9 7.34e-02 3.11e-01h  1
 256 -5.7273221e+00 3.53e+01 1.91e+06  -6.0 7.09e+03  -9.4 1.75e-01 8.71e-02h  1
 257 -5.7359782e+00 3.52e+01 1.23e+06  -6.0 2.22e+03  -9.9 4.40e-01 3.59e-01h  1
 258 -5.7400807e+00 4.16e+01 1.70e+06  -6.0 6.75e+03 -10.4 5.90e-03 1.67e-01h  1
 259 -5.7443344e+00 3.80e+01 1.42e+06  -6.0 4.96e+03    -  3.20e-02 1.65e-01h  1
iter    objective    inf_pr   inf_du lg(mu)  ||d||  lg(rg) alpha_du alpha_pr  ls
 260 -5.7447517e+00 3.74e+01 1.39e+06  -6.0 4.23e+03    -  1.23e-02 1.77e-02h  1
 261 -5.7494047e+00 4.07e+01 1.12e+06  -6.0 4.25e+03    -  3.94e-02 1.94e-01f  1
 262 -5.7511360e+00 3.83e+01 1.03e+06  -6.0 2.76e+03    -  1.82e-02 8.09e-02h  1
 263 -5.7583782e+00 4.45e+01 6.88e+05  -6.0 3.08e+03    -  1.28e-01 3.34e-01h  1
 264 -5.7588729e+00 8.13e+01 6.68e+05  -6.0 5.08e+04    -  1.99e-02 2.93e-02h  1
 265 -5.7695466e+00 5.95e+01 2.11e+06  -6.0 3.44e+03    -  4.56e-06 4.62e-01h  1
 266 -5.7881558e+00 1.66e+01 8.88e+05  -6.0 2.63e+02  -6.4 9.38e-02 7.22e-01h  1
 267 -5.7808181e+00 4.09e-01 8.19e+07  -6.0 1.21e+02  -6.8 5.87e-04 1.00e+00h  1
 268 -5.7807514e+00 3.87e-01 7.74e+07  -6.0 8.61e+02    -  1.43e-01 5.43e-02h  4
 269 -5.7806768e+00 3.73e-01 7.47e+07  -6.0 8.37e+02    -  3.31e-01 3.47e-02h  5
iter    objective    inf_pr   inf_du lg(mu)  ||d||  lg(rg) alpha_du alpha_pr  ls
 270 -5.7806281e+00 3.63e-01 7.28e+07  -6.0 1.23e+03    -  2.27e-01 2.63e-02h  5
 271 -5.7806011e+00 3.58e-01 7.17e+07  -6.0 1.23e+03    -  2.43e-01 1.48e-02h  6
 272 -5.7805792e+00 3.53e-01 7.08e+07  -6.0 1.48e+03    -  1.37e-01 1.29e-02h  6
 273 -5.7805600e+00 3.49e-01 6.99e+07  -6.0 1.51e+03    -  7.18e-01 1.16e-02h  6
 274 -5.7805596e+00 3.49e-01 6.98e+07  -6.0 6.75e+03    -  9.78e-02 1.72e-03h  6
 275 -5.7805390e+00 3.44e-01 6.89e+07  -6.0 1.26e+03    -  9.78e-01 1.27e-02h  6
 276 -5.7786194e+00 4.66e-02 1.06e+04  -6.0 9.59e+00  -7.3 3.41e-01 1.00e+00h  1
 277 -5.7890131e+00 1.17e+00 8.79e+03  -6.0 1.08e+03    -  2.45e-01 1.65e-01h  1
 278 -5.7982494e+00 1.12e+00 6.21e+03  -6.0 7.36e+02    -  7.51e-01 2.89e-01h  1
 279 -5.7982750e+00 1.10e+00 6.09e+03  -6.0 7.62e+03    -  2.28e-01 2.03e-02h  1
iter    objective    inf_pr   inf_du lg(mu)  ||d||  lg(rg) alpha_du alpha_pr  ls
 280 -5.8011046e+00 1.02e+00 4.80e+03  -6.0 4.75e+02    -  1.69e-01 2.11e-01h  1
 281 -5.8011411e+00 8.12e+00 2.11e+01  -6.0 6.68e+02    -  1.00e+00 1.00e+00h  1
 282 -5.7995102e+00 3.32e-02 2.18e+01  -6.0 2.62e+01  -7.8 4.48e-02 1.00e+00h  1
 283 -5.7994456e+00 4.23e-02 6.39e-01  -6.0 5.07e+01  -8.3 1.00e+00 1.00e+00H  1
 284 -5.7994747e+00 1.94e-02 1.35e+01  -6.0 1.40e+02  -8.7 1.00e+00 1.00e+00H  1
 285 -5.7995802e+00 4.54e+00 2.93e+01  -6.0 4.96e+03    -  3.51e-01 1.00e-01h  1
 286 -5.7996233e+00 4.63e+00 2.72e+01  -6.0 1.06e+03    -  1.00e+00 2.50e-01h  3
 287 -5.7996505e+00 4.77e+00 5.28e+01  -6.0 1.91e+03    -  7.87e-01 9.50e-02h  4
 288 -5.7996808e+00 5.13e+00 9.34e+01  -6.0 2.19e+03    -  1.00e+00 1.01e-01h  4
 289 -5.7996943e+00 5.11e+00 1.31e+02  -6.0 2.44e+03    -  6.56e-01 4.57e-02h  5
iter    objective    inf_pr   inf_du lg(mu)  ||d||  lg(rg) alpha_du alpha_pr  ls
 290 -5.7997069e+00 5.11e+00 2.16e+02  -6.0 2.60e+03    -  1.00e+00 4.29e-02h  5
 291 -5.7998938e+00 5.64e+01 3.21e+01  -6.0 2.67e+03    -  6.34e-01 6.69e-01h  1
 292 -5.7998822e+00 5.42e+01 4.17e+03  -6.0 3.18e+03    -  1.69e-02 3.24e-01h  1
 293 -5.7998157e+00 4.81e+01 8.35e+03  -6.0 2.74e+03    -  2.73e-03 1.70e-01h  1
 294 -5.7996749e+00 3.53e+00 8.59e+02  -6.0 3.45e+02    -  1.17e-01 1.00e+00h  1
 295 -5.7997404e+00 3.45e+00 8.20e+01  -6.0 4.79e+02    -  6.35e-01 1.00e+00h  1
 296 -5.7997437e+00 8.15e-01 2.88e-01  -6.0 2.28e+02    -  1.00e+00 1.00e+00h  1
 297 -5.7997421e+00 7.30e-04 1.27e-03  -6.0 6.07e+00    -  1.00e+00 1.00e+00h  1
 298 -5.7997421e+00 4.75e-08 6.17e-08  -6.0 5.63e-02    -  1.00e+00 1.00e+00h  1
 299 -5.7999262e+00 4.84e+00 8.35e+01  -7.5 7.64e+02    -  4.47e-01 7.35e-01h  1
iter    objective    inf_pr   inf_du lg(mu)  ||d||  lg(rg) alpha_du alpha_pr  ls
 300 -5.7999173e+00 1.60e+00 2.19e+00  -7.5 2.55e+02    -  8.97e-01 8.14e-01h  1
 301 -5.7999066e+00 6.63e-02 6.60e-02  -7.5 6.30e+01    -  1.00e+00 1.00e+00h  1
 302 -5.7999061e+00 1.39e-05 4.00e-06  -7.5 9.99e-01    -  1.00e+00 1.00e+00h  1
 303 -5.7999061e+00 2.68e-10 8.46e-12  -7.5 1.43e-04    -  1.00e+00 1.00e+00h  1
 304 -5.7999077e+00 8.91e-03 8.65e-01  -9.0 2.83e+01    -  9.29e-01 8.35e-01h  1
 305 -5.7999079e+00 3.59e-04 2.87e-01  -9.0 4.73e+00    -  9.34e-01 1.00e+00h  1
 306 -5.7999079e+00 3.49e-10 4.13e-09  -9.0 5.04e-03    -  1.00e+00 1.00e+00h  1

Number of Iterations....: 306

                                   (scaled)                 (unscaled)
Objective...............:  -4.5311780590554340e+00   -5.7999079155909552e+00
Dual infeasibility......:   4.1279434660933232e-09    5.2837676365994540e-09
Constraint violation....:   2.9442715691711807e-10    3.4924596548080444e-10
Complementarity.........:   1.2906802829875306e-09    1.6520707622240392e-09
Overall NLP error.......:   4.1279434660933232e-09    5.2837676365994540e-09


Number of objective function evaluations             = 504
Number of objective gradient evaluations             = 299
Number of equality constraint evaluations            = 504
Number of inequality constraint evaluations          = 504
Number of equality constraint Jacobian evaluations   = 312
Number of inequality constraint Jacobian evaluations = 312
Number of Lagrangian Hessian evaluations             = 306
Total CPU secs in IPOPT (w/o function evaluations)   =    738.274
Total CPU secs in NLP function evaluations           =     12.894

EXIT: Optimal Solution Found.
